37 52
42 57
31 62
27 68
37 69
43 67
52 64
63 69
62 63
57 58
49 49
58 48
62 42
52 41
56 37
61 33
58 27
52 33
48 28
51 21
59 15
46 10
39 10
36 16
30 15
21 10
5 6
13 13
10 17
5 25
7 38
12 42
8 52
5 64
17 63
16 57
25 55
21 47
30 48
30 40
32 39
31 32
25 32
17 33
20 26
27 23
32 22
40 30
45 35
42 41
38 46
37 52
